
Gurobi 9.5.1 (mac64[x86]) logging started Wed Jun  8 15:27:46 2022

Set parameter LogFile to value "/Users/keyvanmajd/Documents/GitHub/NNRepLayer_v2/demos/examples/tc7_walking_example/repair_phase_constraint/repair_net/logs/opt_log_6_8_2022_15_27_28.log"
Gurobi Optimizer version 9.5.1 build v9.5.1rc2 (mac64[x86])
Thread count: 4 physical cores, 8 logical processors, using up to 8 threads
Optimize a model with 366 rows, 134 columns and 1212 nonzeros
Model fingerprint: 0x663cf26e
Model has 101 quadratic objective terms
Coefficient statistics:
  Matrix range     [8e-03, 1e+01]
  Objective range  [2e-02, 5e+00]
  QObjective range [2e-01, 2e+00]
  Bounds range     [1e+01, 1e+02]
  RHS range        [5e-04, 2e+01]
Presolve removed 225 rows and 13 columns
Presolve time: 0.01s
Presolved: 141 rows, 121 columns, 969 nonzeros
Presolved model has 101 quadratic objective terms
Ordering time: 0.00s

Barrier statistics:
 Dense cols : 15
 AA' NZ     : 1.115e+03
 Factor NZ  : 1.637e+03
 Factor Ops : 2.419e+04 (less than 1 second per iteration)
 Threads    : 1

                  Objective                Residual
Iter       Primal          Dual         Primal    Dual     Compl     Time
   0   4.02531567e+07 -4.10735063e+07  6.20e+03 7.34e+02  8.92e+05     0s
   1   1.44512732e+07 -1.52732861e+07  3.61e+03 4.27e+02  5.27e+05     0s
   2   1.13581487e+05 -1.42354229e+06  3.26e+02 3.85e+01  6.69e+04     0s
   3   8.29012970e+03 -1.12703589e+06  8.48e+01 1.00e+01  1.86e+04     0s
   4   7.52687345e+02 -9.79979061e+05  1.58e+01 1.87e+00  6.07e+03     0s
   5   7.42711962e+02 -8.69994578e+05  1.53e+01 1.81e+00  5.92e+03     0s
   6   7.96838869e+02 -2.46875852e+05  1.46e+01 1.73e+00  5.70e+03     0s
   7   7.81908793e+02  8.25574462e+04  1.37e+01 1.63e+00  5.30e+03     0s
   8   8.17099179e+02  1.79989261e+06  1.28e+01 1.51e+00  4.81e+03     0s
   9   8.84841303e+02  3.73815651e+06  1.24e+01 1.47e+00  4.58e+03     0s
  10   9.60065562e+02  7.17513496e+06  1.22e+01 1.45e+00  4.40e+03     0s
  11   1.00626425e+09 -1.01037077e+09  3.10e+04 3.65e+03  2.22e+07     0s
  12   1.99297615e+08 -2.04323191e+08  1.33e+04 1.57e+03  1.07e+07     0s
  13   2.06833529e+03 -5.49503452e+06  2.93e+01 3.38e+00  4.28e+04     0s
  14   1.01081620e+03 -4.06346435e+06  1.59e+01 1.84e+00  2.51e+04     0s
  15   1.00305712e+03 -1.57515450e+06  1.45e+01 1.67e+00  2.31e+04     0s
  16   9.49331890e+02  1.92521676e+06  1.29e+01 1.49e+00  1.98e+04     0s
  17   9.73027503e+02  6.93525989e+06  1.25e+01 1.44e+00  1.87e+04     0s
  18   1.01015760e+03  1.54331784e+07  1.23e+01 1.42e+00  1.82e+04     0s
  19   1.01978687e+03  2.92174850e+07  1.22e+01 1.41e+00  1.81e+04     0s
  20   1.03279932e+03  7.92038262e+07  1.21e+01 1.40e+00  1.76e+04     0s
  21   1.03600170e+03  2.83064268e+08  1.21e+01 1.40e+00  1.77e+04     0s
  22   1.03662070e+03  9.25047008e+08  1.21e+01 1.39e+00  1.94e+04     0s
  23   1.03938182e+03  5.37373053e+09  1.21e+01 1.38e+00  2.20e+04     0s
  24   1.00626425e+09 -1.01037077e+09  3.10e+04 3.65e+03  2.22e+07     0s
  25   1.32999698e+04 -2.23914422e+04  1.12e+02 1.52e+01  2.66e+02     0s
  26   5.08740538e+02 -8.75730107e+02  1.60e+01 2.18e+00  8.12e+00     0s
  27   6.70382787e+02  9.40611519e+02  1.58e+01 2.11e+00  1.57e+01     0s
  28   7.04113834e+02  3.10778418e+03  1.39e+01 1.76e+00  2.29e+01     0s
  29   1.35700314e+03  4.18457859e+04  1.37e+01 1.47e+00  3.09e+02     0s
  30   1.40326784e+03  8.15702325e+05  2.14e+01 2.29e+00  3.67e+04     0s
  31*  1.46495106e+03  1.58480199e+08  3.15e-01 4.93e-02  7.12e+01     0s
  32*  1.46495265e+03  1.56828739e+11  3.15e-04 4.73e-05  7.13e-02     0s
  33*  1.31764852e+03  1.30252532e+14  3.42e-07 6.38e-08  8.14e-05     0s
  34*  7.30958082e+02  4.74265655e+16  3.35e-10 1.52e-09  1.55e-07     0s
  35*  6.43899052e+02  1.84082220e+17  1.80e-10 5.32e-10  2.71e-08     0s
  36*  6.43899052e+02  1.83927557e+20  1.80e-13 1.51e-09  2.71e-11     0s

Barrier performed 36 iterations in 0.02 seconds (0.00 work units)
Infeasible model

